147
1000
506
610
366
543
331
25
504
629
13
561
614
390
86
340
499
8
314
348
660
453
178
172
290
16
590
643
358
166
405
476
119
79
115
373
379
217
559
20
202
586
216
14
199
362
330
2
247
207
557
5
411
97
633
13
322
236
105
496
557
91
50
65
56
678
253
155
441
23
313
383
345
17
517
414
167
609
50
324
367
635
203
443
206
173
282
388
49
316
1
447
48
87
3
443
140
185
179
484
457
237
204
160
231
117
229
320
79
377
632
276
289
290
479
634
249
360
612
117
126
618
400
567
634
32
704
72
20
545
281
547
283
131
414
652
312
494
81
353
83
562
734
282
270
83
128
344
117
